(declare-fun GHC.Base.id () Int)
(declare-fun GHC.Stack.Types.FreezeCallStack () Int)
(declare-fun lq_anf$36$$35$$35$7205759403792801630$35$$35$d25w () Int)
(declare-fun GHC.Base.map () Int)
(declare-fun lq_tmp$36$x$35$$35$450 () Int)
(declare-fun autolen () Int)
(declare-fun lq_tmp$36$x$35$$35$494 () Int)
(declare-fun Data.Foldable.$36$fFoldableList () Int)
(declare-fun lq_anf$36$$35$$35$7205759403792801662$35$$35$d262 () Int)
(declare-fun Data.Either.Right () Int)
(declare-fun GHC.Stack.Types.PushCallStack () Int)
(declare-fun lq_tmp$36$x$35$$35$705 () Int)
(declare-fun GHC.Base.$43$$43$ () Int)
(declare-fun GHC.Types.True () Bool)
(declare-fun GHC.Base.. () Int)
(declare-fun lq_tmp$36$x$35$$35$759 () Int)
(declare-fun lq_anf$36$$35$$35$7205759403792801655$35$$35$d25V () Int)
(declare-fun x$35$$35$a1gy () Int)
(declare-fun lq_anf$36$$35$$35$7205759403792801634$35$$35$d25A () Int)
(declare-fun head () Int)
(declare-fun GHC.Tuple.Prim.$40$$44$$44$$41$ () Int)
(declare-fun tail () Int)
(declare-fun lq_anf$36$$35$$35$7205759403792801629$35$$35$d25v () Str)
(declare-fun lq_anf$36$$35$$35$7205759403792801621$35$$35$d25n () Int)
(declare-fun GHC.Real.quot () Int)
(declare-fun x$35$$35$a1gx () Int)
(declare-fun lq_tmp$36$x$35$$35$729 () Int)
(declare-fun lq_anf$36$$35$$35$7205759403792801647$35$$35$d25N () Real)
(declare-fun GHC.Base.$36$fMonadIO () Int)
(declare-fun lit$36$Lib () Str)
(declare-fun lq_anf$36$$35$$35$7205759403792801632$35$$35$d25y () Int)
(declare-fun lq_anf$36$$35$$35$7205759403792801650$35$$35$d25Q () Int)
(declare-fun GHC.Real.$36$W$58$$37$ () Int)
(declare-fun y$35$$35$a1gz () Int)
(declare-fun GHC.Float.sin () Int)
(declare-fun x_Tuple21 () Int)
(declare-fun lit$36$$61$$61$$61$$32$Demo$32$1$58$$32$Pre$47$Post$32$Conditions$32$$61$$61$$61$ () Str)
(declare-fun lq_tmp$36$x$35$$35$789 () Int)
(declare-fun lq_tmp$36$x$35$$35$806 () Int)
(declare-fun lq_anf$36$$35$$35$7205759403792801642$35$$35$d25I () Str)
(declare-fun GHC.Tuple.Prim.$40$$41$ () Int)
(declare-fun GHC.Real.fromRational () Int)
(declare-fun GHC.Real.recip () Int)
(declare-fun GHC.Num.abs () Int)
(declare-fun GHC.Tuple.Prim.$40$$44$$41$ () Int)
(declare-fun GHC.IO.Exception.IOError () Int)
(declare-fun GHC.Float.$42$$42$ () Int)
(declare-fun lq_anf$36$$35$$35$7205759403792801627$35$$35$d25t () Int)
(declare-fun x_Tuple22 () Int)
(declare-fun GHC.Float.$36$fShowDouble () Int)
(declare-fun GHC.Real.$47$ () Int)
(declare-fun GHC.Show.$36$fShowInt () Int)
(declare-fun GHC.Base.$36$ () Int)
(declare-fun fldList () Int)
(declare-fun lq_tmp$36$x$35$$35$722 () Int)
(declare-fun GHC.Types.I$35$ () Int)
(declare-fun lq_anf$36$$35$$35$7205759403792801640$35$$35$d25G () Int)
(declare-fun lq_anf$36$$35$$35$7205759403792801661$35$$35$d261 () Int)
(declare-fun lq_tmp$36$x$35$$35$752 () Int)
(declare-fun GHC.Num.negate () Int)
(declare-fun lq_anf$36$$35$$35$7205759403792801651$35$$35$d25R () Int)
(declare-fun GHC.Num.Integer.IN () Int)
(declare-fun GHC.Enum.C$58$Bounded () Int)
(declare-fun lqdc$35$$35$$36$select$35$$35$GHC.Maybe.Just$35$$35$1 () Int)
(declare-fun GHC.Float.atanh () Int)
(declare-fun lq_anf$36$$35$$35$7205759403792801659$35$$35$d25Z () Int)
(declare-fun lq_anf$36$$35$$35$7205759403792801636$35$$35$d25C () Int)
(declare-fun System.IO.print () Int)
(declare-fun lq_anf$36$$35$$35$7205759403792801625$35$$35$d25r () Real)
(declare-fun GHC.Types.$58$ () Int)
(declare-fun Data.Either.Left () Int)
(declare-fun lq_anf$36$$35$$35$7205759403792801649$35$$35$d25P () Int)
(declare-fun GHC.Float.atan () Int)
(declare-fun lq_anf$36$$35$$35$7205759403792801645$35$$35$d25L () Int)
(declare-fun GHC.Float.log () Int)
(declare-fun lq_anf$36$$35$$35$7205759403792801656$35$$35$d25W () Int)
(declare-fun GHC.Types.Module () Int)
(declare-fun lit$36$$10$$61$$61$$61$$32$Demo$32$2$58$$32$Parametrized$32$Refinements$32$$61$$61$$61$ () Str)
(declare-fun lq_anf$36$$35$$35$7205759403792801639$35$$35$d25F () Int)
(declare-fun totalityError () Int)
(declare-fun GHC.Num.fromInteger () Int)
(declare-fun GHC.Real.fromIntegral () Int)
(declare-fun GHC.Float.asin () Int)
(declare-fun lq_anf$36$$35$$35$7205759403792801628$35$$35$d25u () Str)
(declare-fun Lib.$36$trModule () Int)
(declare-fun VV$35$$35$F$35$$35$32 () Int)
(declare-fun lq_anf$36$$35$$35$7205759403792801660$35$$35$d260 () Int)
(declare-fun Lib.demo () Int)
(declare-fun lq_anf$36$$35$$35$7205759403792801663$35$$35$d263 () Int)
(declare-fun GHC.Types.TrNameD () Int)
(declare-fun GHC.Types.EQ () Int)
(declare-fun lq_tmp$36$x$35$$35$782 () Int)
(declare-fun VV$35$$35$F$35$$35$31 () Int)
(declare-fun lq_anf$36$$35$$35$7205759403792801657$35$$35$d25X () Int)
(declare-fun Data.Foldable.length () Int)
(declare-fun lq_anf$36$$35$$35$7205759403792801653$35$$35$d25T () Int)
(declare-fun GHC.Float.tanh () Int)
(declare-fun GHC.Float.$36$fNumDouble () Int)
(declare-fun VV$35$$35$F$35$$35$30 () Real)
(declare-fun GHC.Types.D$35$ () Int)
(declare-fun GHC.Maybe.Nothing () Int)
(declare-fun x_Tuple32 () Int)
(declare-fun GHC.Types.LT () Int)
(declare-fun Data.Tuple.snd () Int)
(declare-fun GHC.Types.False () Bool)
(declare-fun x_Tuple33 () Int)
(declare-fun GHC.Types.GT () Int)
(declare-fun GHC.Real.mod () Int)
(declare-fun lq_tmp$36$x$35$$35$636 () Int)
(declare-fun Lib.safeDivide () Int)
(declare-fun GHC.Float.cosh () Int)
(declare-fun liquid_internal_this () Int)
(declare-fun lq_anf$36$$35$$35$7205759403792801643$35$$35$d25J () Str)
(declare-fun snd () Int)
(declare-fun x_Tuple31 () Int)
(declare-fun Data.Foldable.null () Int)
(declare-fun GHC.Err.error () Int)
(declare-fun GHC.Float.tan () Int)
(declare-fun GHC.Float.acos () Int)
(declare-fun len () Int)
(declare-fun VV$35$$35$F$35$$35$28 () Int)
(declare-fun lq_anf$36$$35$$35$7205759403792801658$35$$35$d25Y () Int)
(declare-fun GHC.Num.Integer.IP () Int)
(declare-fun VV$35$$35$F$35$$35$11 () Int)
(declare-fun addrLen () Int)
(declare-fun cast_as_int () Int)
(declare-fun lq_anf$36$$35$$35$7205759403792801654$35$$35$d25U () Int)
(declare-fun GHC.Maybe.Just () Int)
(declare-fun VV$35$$35$F$35$$35$29 () Int)
(declare-fun GHC.Real.divMod () Int)
(declare-fun lq_anf$36$$35$$35$7205759403792801664$35$$35$d264 () Int)
(declare-fun cast_as () Int)
(declare-fun Lib.percentage () Int)
(declare-fun GHC.Float.pi () Int)
(declare-fun System.IO.putStrLn () Int)
(declare-fun Lib.posMul () Int)
(declare-fun GHC.Float.acosh () Int)
(declare-fun GHC.Num.Integer.IS () Int)
(declare-fun lq_karg$36$VV$35$$35$335$35$$35$k_$35$$35$336 () Int)
(declare-fun GHC.Float.sqrt () Int)
(declare-fun lq_anf$36$$35$$35$7205759403792801623$35$$35$d25p () Int)
(declare-fun lq_tmp$36$x$35$$35$527 () Int)
(declare-fun GHC.Float.logBase () Int)
(declare-fun GHC.Float.sinh () Int)
(declare-fun GHC.Real.quotRem () Int)
(declare-fun VV$35$$35$F$35$$35$24 () Int)
(declare-fun papp3 () Int)
(declare-fun x$35$$35$a1gC () Int)
(declare-fun Lib.increment () Int)
(declare-fun lq_anf$36$$35$$35$7205759403792801637$35$$35$d25D () Int)
(declare-fun GHC.Real.div () Int)
(declare-fun GHC.Real.$94$ () Int)
(declare-fun GHC.Types.TrNameS () Int)
(declare-fun fst () Int)
(declare-fun VV$35$$35$F$35$$35$25 () Int)
(declare-fun papp2 () Int)
(declare-fun lq_anf$36$$35$$35$7205759403792801648$35$$35$d25O () Int)
(declare-fun GHC.Num.$45$ () Int)
(declare-fun lq_anf$36$$35$$35$7205759403792801644$35$$35$d25K () Int)
(declare-fun VV$35$$35$F$35$$35$26 () Int)
(declare-fun lq_anf$36$$35$$35$7205759403792801633$35$$35$d25z () Int)
(declare-fun lit$36$liquid$45$haskell$45$demo$45$0.1.0.0$45$I2TVu7wmE0PEn0Q4dz01FO () Str)
(declare-fun GHC.Types.C$35$ () Int)
(declare-fun lq_anf$36$$35$$35$7205759403792801638$35$$35$d25E () Int)
(declare-fun papp1 () Int)
(declare-fun lq_anf$36$$35$$35$7205759403792801631$35$$35$d25x () Int)
(declare-fun Data.Tuple.fst () Int)
(declare-fun x$35$$35$a1gA () Int)
(declare-fun lq_tmp$36$x$35$$35$383 () Int)
(declare-fun VV$35$$35$F$35$$35$27 () Int)
(declare-fun GHC.Float.asinh () Int)
(declare-fun GHC.Float.$36$fFractionalDouble () Int)
(declare-fun GHC.Float.cos () Int)
(declare-fun lq_anf$36$$35$$35$7205759403792801641$35$$35$d25H () Int)
(declare-fun GHC.Float.exp () Int)
(declare-fun y$35$$35$a1gB () Int)
(declare-fun lq_anf$36$$35$$35$7205759403792801635$35$$35$d25B () Int)
(declare-fun papp7 () Int)
(declare-fun Data.Foldable.sum () Int)
(declare-fun GHC.Num.$36$fNumInt () Int)
(declare-fun GHC.Types.$91$$93$ () Int)
(declare-fun lq_anf$36$$35$$35$7205759403792801652$35$$35$d25S () Int)
(declare-fun GHC.Real.toInteger () Int)
(declare-fun Lib.sumNonEmpty () Int)
(declare-fun lq_anf$36$$35$$35$7205759403792801620$35$$35$d25m () Str)
(declare-fun GHC.Real.$58$$37$ () Int)
(declare-fun lq_anf$36$$35$$35$7205759403792801646$35$$35$d25M () Int)
(declare-fun GHC.Stack.Types.EmptyCallStack () Int)
(declare-fun lq_anf$36$$35$$35$7205759403792801626$35$$35$d25s () Int)
(declare-fun GHC.Real.rem () Int)
(declare-fun papp6 () Int)
(declare-fun lq_anf$36$$35$$35$7205759403792801624$35$$35$d25q () Real)
(declare-fun lq_anf$36$$35$$35$7205759403792801622$35$$35$d25o () Str)
(declare-fun GHC.Classes.C$58$IP () Int)
(declare-fun GHC.CString.unpackCString$35$ () Int)
(declare-fun papp5 () Int)
(declare-fun GHC.Real.$36$fIntegralInt () Int)
(declare-fun GHC.Num.$42$ () Int)
(declare-fun GHC.Base.$62$$62$ () Int)
(declare-fun papp4 () Int)
(declare-fun GHC.Num.$43$ () Int)
(declare-fun apply$35$$35$26 (Int (_ BitVec 32)) Real)
(declare-fun apply$35$$35$32 (Int (_ BitVec 64)) Real)
(declare-fun apply$35$$35$17 (Int Real) (_ BitVec 64))
(declare-fun apply$35$$35$16 (Int Real) (_ BitVec 32))
(declare-fun apply$35$$35$24 (Int (_ BitVec 32)) Int)
(declare-fun apply$35$$35$5 (Int Int) (_ BitVec 64))
(declare-fun apply$35$$35$30 (Int (_ BitVec 64)) Int)
(declare-fun apply$35$$35$4 (Int Int) (_ BitVec 32))
(declare-fun apply$35$$35$28 (Int (_ BitVec 32)) (_ BitVec 32))
(declare-fun apply$35$$35$35 (Int (_ BitVec 64)) (_ BitVec 64))
(declare-fun apply$35$$35$29 (Int (_ BitVec 32)) (_ BitVec 64))
(declare-fun apply$35$$35$7 (Int Bool) Bool)
(declare-fun apply$35$$35$34 (Int (_ BitVec 64)) (_ BitVec 32))
(declare-fun apply$35$$35$0 (Int Int) Int)
(declare-fun apply$35$$35$21 (Int Str) Str)
(declare-fun apply$35$$35$14 (Int Real) Real)
(declare-fun apply$35$$35$9 (Int Bool) Str)
(declare-fun apply$35$$35$2 (Int Int) Real)
(declare-fun apply$35$$35$19 (Int Str) Bool)
(declare-fun apply$35$$35$12 (Int Real) Int)
(declare-fun apply$35$$35$27 (Int (_ BitVec 32)) Str)
(declare-fun apply$35$$35$22 (Int Str) (_ BitVec 32))
(declare-fun apply$35$$35$33 (Int (_ BitVec 64)) Str)
(declare-fun apply$35$$35$23 (Int Str) (_ BitVec 64))
(declare-fun apply$35$$35$25 (Int (_ BitVec 32)) Bool)
(declare-fun apply$35$$35$10 (Int Bool) (_ BitVec 32))
(declare-fun apply$35$$35$31 (Int (_ BitVec 64)) Bool)
(declare-fun apply$35$$35$11 (Int Bool) (_ BitVec 64))
(declare-fun apply$35$$35$15 (Int Real) Str)
(declare-fun apply$35$$35$6 (Int Bool) Int)
(declare-fun apply$35$$35$1 (Int Int) Bool)
(declare-fun apply$35$$35$20 (Int Str) Real)
(declare-fun apply$35$$35$8 (Int Bool) Real)
(declare-fun apply$35$$35$3 (Int Int) Str)
(declare-fun apply$35$$35$18 (Int Str) Int)
(declare-fun apply$35$$35$13 (Int Real) Bool)
(declare-fun coerce$35$$35$26 ((_ BitVec 32)) Real)
(declare-fun coerce$35$$35$32 ((_ BitVec 64)) Real)
(declare-fun coerce$35$$35$17 (Real) (_ BitVec 64))
(declare-fun coerce$35$$35$16 (Real) (_ BitVec 32))
(declare-fun coerce$35$$35$24 ((_ BitVec 32)) Int)
(declare-fun coerce$35$$35$5 (Int) (_ BitVec 64))
(declare-fun coerce$35$$35$30 ((_ BitVec 64)) Int)
(declare-fun coerce$35$$35$4 (Int) (_ BitVec 32))
(declare-fun coerce$35$$35$28 ((_ BitVec 32)) (_ BitVec 32))
(declare-fun coerce$35$$35$35 ((_ BitVec 64)) (_ BitVec 64))
(declare-fun coerce$35$$35$29 ((_ BitVec 32)) (_ BitVec 64))
(declare-fun coerce$35$$35$7 (Bool) Bool)
(declare-fun coerce$35$$35$34 ((_ BitVec 64)) (_ BitVec 32))
(declare-fun coerce$35$$35$0 (Int) Int)
(declare-fun coerce$35$$35$21 (Str) Str)
(declare-fun coerce$35$$35$14 (Real) Real)
(declare-fun coerce$35$$35$9 (Bool) Str)
(declare-fun coerce$35$$35$2 (Int) Real)
(declare-fun coerce$35$$35$19 (Str) Bool)
(declare-fun coerce$35$$35$12 (Real) Int)
(declare-fun coerce$35$$35$27 ((_ BitVec 32)) Str)
(declare-fun coerce$35$$35$22 (Str) (_ BitVec 32))
(declare-fun coerce$35$$35$33 ((_ BitVec 64)) Str)
(declare-fun coerce$35$$35$23 (Str) (_ BitVec 64))
(declare-fun coerce$35$$35$25 ((_ BitVec 32)) Bool)
(declare-fun coerce$35$$35$10 (Bool) (_ BitVec 32))
(declare-fun coerce$35$$35$31 ((_ BitVec 64)) Bool)
(declare-fun coerce$35$$35$11 (Bool) (_ BitVec 64))
(declare-fun coerce$35$$35$15 (Real) Str)
(declare-fun coerce$35$$35$6 (Bool) Int)
(declare-fun coerce$35$$35$1 (Int) Bool)
(declare-fun coerce$35$$35$20 (Str) Real)
(declare-fun coerce$35$$35$8 (Bool) Real)
(declare-fun coerce$35$$35$3 (Int) Str)
(declare-fun coerce$35$$35$18 (Str) Int)
(declare-fun coerce$35$$35$13 (Real) Bool)
(declare-fun smt_lambda$35$$35$26 ((_ BitVec 32) Real) Int)
(declare-fun smt_lambda$35$$35$32 ((_ BitVec 64) Real) Int)
(declare-fun smt_lambda$35$$35$17 (Real (_ BitVec 64)) Int)
(declare-fun smt_lambda$35$$35$16 (Real (_ BitVec 32)) Int)
(declare-fun smt_lambda$35$$35$24 ((_ BitVec 32) Int) Int)
(declare-fun smt_lambda$35$$35$5 (Int (_ BitVec 64)) Int)
(declare-fun smt_lambda$35$$35$30 ((_ BitVec 64) Int) Int)
(declare-fun smt_lambda$35$$35$4 (Int (_ BitVec 32)) Int)
(declare-fun smt_lambda$35$$35$28 ((_ BitVec 32) (_ BitVec 32)) Int)
(declare-fun smt_lambda$35$$35$35 ((_ BitVec 64) (_ BitVec 64)) Int)
(declare-fun smt_lambda$35$$35$29 ((_ BitVec 32) (_ BitVec 64)) Int)
(declare-fun smt_lambda$35$$35$7 (Bool Bool) Int)
(declare-fun smt_lambda$35$$35$34 ((_ BitVec 64) (_ BitVec 32)) Int)
(declare-fun smt_lambda$35$$35$0 (Int Int) Int)
(declare-fun smt_lambda$35$$35$21 (Str Str) Int)
(declare-fun smt_lambda$35$$35$14 (Real Real) Int)
(declare-fun smt_lambda$35$$35$9 (Bool Str) Int)
(declare-fun smt_lambda$35$$35$2 (Int Real) Int)
(declare-fun smt_lambda$35$$35$19 (Str Bool) Int)
(declare-fun smt_lambda$35$$35$12 (Real Int) Int)
(declare-fun smt_lambda$35$$35$27 ((_ BitVec 32) Str) Int)
(declare-fun smt_lambda$35$$35$22 (Str (_ BitVec 32)) Int)
(declare-fun smt_lambda$35$$35$33 ((_ BitVec 64) Str) Int)
(declare-fun smt_lambda$35$$35$23 (Str (_ BitVec 64)) Int)
(declare-fun smt_lambda$35$$35$25 ((_ BitVec 32) Bool) Int)
(declare-fun smt_lambda$35$$35$10 (Bool (_ BitVec 32)) Int)
(declare-fun smt_lambda$35$$35$31 ((_ BitVec 64) Bool) Int)
(declare-fun smt_lambda$35$$35$11 (Bool (_ BitVec 64)) Int)
(declare-fun smt_lambda$35$$35$15 (Real Str) Int)
(declare-fun smt_lambda$35$$35$6 (Bool Int) Int)
(declare-fun smt_lambda$35$$35$1 (Int Bool) Int)
(declare-fun smt_lambda$35$$35$20 (Str Real) Int)
(declare-fun smt_lambda$35$$35$8 (Bool Real) Int)
(declare-fun smt_lambda$35$$35$3 (Int Str) Int)
(declare-fun smt_lambda$35$$35$18 (Str Int) Int)
(declare-fun smt_lambda$35$$35$13 (Real Bool) Int)
(declare-fun lam_arg$35$$35$1$35$$35$24 () (_ BitVec 32))
(declare-fun lam_arg$35$$35$2$35$$35$24 () (_ BitVec 32))
(declare-fun lam_arg$35$$35$3$35$$35$24 () (_ BitVec 32))
(declare-fun lam_arg$35$$35$4$35$$35$24 () (_ BitVec 32))
(declare-fun lam_arg$35$$35$5$35$$35$24 () (_ BitVec 32))
(declare-fun lam_arg$35$$35$6$35$$35$24 () (_ BitVec 32))
(declare-fun lam_arg$35$$35$7$35$$35$24 () (_ BitVec 32))
(declare-fun lam_arg$35$$35$1$35$$35$30 () (_ BitVec 64))
(declare-fun lam_arg$35$$35$2$35$$35$30 () (_ BitVec 64))
(declare-fun lam_arg$35$$35$3$35$$35$30 () (_ BitVec 64))
(declare-fun lam_arg$35$$35$4$35$$35$30 () (_ BitVec 64))
(declare-fun lam_arg$35$$35$5$35$$35$30 () (_ BitVec 64))
(declare-fun lam_arg$35$$35$6$35$$35$30 () (_ BitVec 64))
(declare-fun lam_arg$35$$35$7$35$$35$30 () (_ BitVec 64))
(declare-fun lam_arg$35$$35$1$35$$35$0 () Int)
(declare-fun lam_arg$35$$35$2$35$$35$0 () Int)
(declare-fun lam_arg$35$$35$3$35$$35$0 () Int)
(declare-fun lam_arg$35$$35$4$35$$35$0 () Int)
(declare-fun lam_arg$35$$35$5$35$$35$0 () Int)
(declare-fun lam_arg$35$$35$6$35$$35$0 () Int)
(declare-fun lam_arg$35$$35$7$35$$35$0 () Int)
(declare-fun lam_arg$35$$35$1$35$$35$12 () Real)
(declare-fun lam_arg$35$$35$2$35$$35$12 () Real)
(declare-fun lam_arg$35$$35$3$35$$35$12 () Real)
(declare-fun lam_arg$35$$35$4$35$$35$12 () Real)
(declare-fun lam_arg$35$$35$5$35$$35$12 () Real)
(declare-fun lam_arg$35$$35$6$35$$35$12 () Real)
(declare-fun lam_arg$35$$35$7$35$$35$12 () Real)
(declare-fun lam_arg$35$$35$1$35$$35$6 () Bool)
(declare-fun lam_arg$35$$35$2$35$$35$6 () Bool)
(declare-fun lam_arg$35$$35$3$35$$35$6 () Bool)
(declare-fun lam_arg$35$$35$4$35$$35$6 () Bool)
(declare-fun lam_arg$35$$35$5$35$$35$6 () Bool)
(declare-fun lam_arg$35$$35$6$35$$35$6 () Bool)
(declare-fun lam_arg$35$$35$7$35$$35$6 () Bool)
(declare-fun lam_arg$35$$35$1$35$$35$18 () Str)
(declare-fun lam_arg$35$$35$2$35$$35$18 () Str)
(declare-fun lam_arg$35$$35$3$35$$35$18 () Str)
(declare-fun lam_arg$35$$35$4$35$$35$18 () Str)
(declare-fun lam_arg$35$$35$5$35$$35$18 () Str)
(declare-fun lam_arg$35$$35$6$35$$35$18 () Str)
(declare-fun lam_arg$35$$35$7$35$$35$18 () Str)




(assert (distinct lit$36$liquid$45$haskell$45$demo$45$0.1.0.0$45$I2TVu7wmE0PEn0Q4dz01FO lit$36$$10$$61$$61$$61$$32$Demo$32$2$58$$32$Parametrized$32$Refinements$32$$61$$61$$61$ lit$36$$61$$61$$61$$32$Demo$32$1$58$$32$Pre$47$Post$32$Conditions$32$$61$$61$$61$ lit$36$Lib))
(assert (distinct GHC.Types.False GHC.Types.True))






(assert (distinct GHC.Types.GT GHC.Types.LT GHC.Types.EQ))
(assert (= (strLen lit$36$Lib) 3))
(assert (= (strLen lit$36$$61$$61$$61$$32$Demo$32$1$58$$32$Pre$47$Post$32$Conditions$32$$61$$61$$61$) 35))
(assert (= (strLen lit$36$$10$$61$$61$$61$$32$Demo$32$2$58$$32$Parametrized$32$Refinements$32$$61$$61$$61$) 41))
(assert (= (strLen lit$36$liquid$45$haskell$45$demo$45$0.1.0.0$45$I2TVu7wmE0PEn0Q4dz01FO) 50))
(push 1)
(define-fun b$36$$35$$35$128 () Bool (= lq_anf$36$$35$$35$7205759403792801638$35$$35$d25E 2))
(define-fun b$36$$35$$35$129 () Bool (= lq_anf$36$$35$$35$7205759403792801639$35$$35$d25F lq_anf$36$$35$$35$7205759403792801638$35$$35$d25E))
(define-fun b$36$$35$$35$98 () Bool (= lq_anf$36$$35$$35$7205759403792801620$35$$35$d25m lit$36$liquid$45$haskell$45$demo$45$0.1.0.0$45$I2TVu7wmE0PEn0Q4dz01FO))
(define-fun b$36$$35$$35$100 () Bool (= lq_anf$36$$35$$35$7205759403792801622$35$$35$d25o lit$36$Lib))
(define-fun b$36$$35$$35$132 () Bool (= lq_anf$36$$35$$35$7205759403792801642$35$$35$d25I lit$36$$10$$61$$61$$61$$32$Demo$32$2$58$$32$Parametrized$32$Refinements$32$$61$$61$$61$))
(define-fun b$36$$35$$35$133 () Bool (and (= (apply$35$$35$18 (as len Int) lq_anf$36$$35$$35$7205759403792801643$35$$35$d25J) (strLen lq_anf$36$$35$$35$7205759403792801642$35$$35$d25I)) (>= (apply$35$$35$18 (as len Int) lq_anf$36$$35$$35$7205759403792801643$35$$35$d25J) 0) (= lq_anf$36$$35$$35$7205759403792801643$35$$35$d25J lq_anf$36$$35$$35$7205759403792801642$35$$35$d25I)))
(define-fun b$36$$35$$35$135 () Bool (= lq_anf$36$$35$$35$7205759403792801645$35$$35$d25L 85))
(define-fun b$36$$35$$35$104 () Bool (not (= y$35$$35$a1gz 0)))
(define-fun b$36$$35$$35$136 () Bool (= lq_anf$36$$35$$35$7205759403792801646$35$$35$d25M lq_anf$36$$35$$35$7205759403792801645$35$$35$d25L))
(define-fun b$36$$35$$35$74 () Bool (not GHC.Types.False))
(define-fun b$36$$35$$35$106 () Bool (and (<= 0 x$35$$35$a1gC) (<= x$35$$35$a1gC 100)))
(define-fun b$36$$35$$35$107 () Bool (= lq_anf$36$$35$$35$7205759403792801624$35$$35$d25q x$35$$35$a1gC))
(define-fun b$36$$35$$35$139 () Bool (= lq_anf$36$$35$$35$7205759403792801649$35$$35$d25P 1))
(define-fun b$36$$35$$35$108 () Bool (= lq_anf$36$$35$$35$7205759403792801625$35$$35$d25r 100.0))
(define-fun b$36$$35$$35$140 () Bool (= lq_anf$36$$35$$35$7205759403792801650$35$$35$d25Q lq_anf$36$$35$$35$7205759403792801649$35$$35$d25P))
(define-fun b$36$$35$$35$141 () Bool (= lq_anf$36$$35$$35$7205759403792801651$35$$35$d25R 2))
(define-fun b$36$$35$$35$110 () Bool (> x$35$$35$a1gA 0))
(define-fun b$36$$35$$35$142 () Bool (= lq_anf$36$$35$$35$7205759403792801652$35$$35$d25S lq_anf$36$$35$$35$7205759403792801651$35$$35$d25R))
(define-fun b$36$$35$$35$111 () Bool (> y$35$$35$a1gB 0))
(define-fun b$36$$35$$35$143 () Bool (= lq_anf$36$$35$$35$7205759403792801653$35$$35$d25T 3))
(define-fun b$36$$35$$35$144 () Bool (= lq_anf$36$$35$$35$7205759403792801654$35$$35$d25U lq_anf$36$$35$$35$7205759403792801653$35$$35$d25T))
(define-fun b$36$$35$$35$113 () Bool (>= x$35$$35$a1gx 0))
(define-fun b$36$$35$$35$114 () Bool (= lq_anf$36$$35$$35$7205759403792801626$35$$35$d25s 1))
(define-fun b$36$$35$$35$146 () Bool (and (= (apply$35$$35$0 (as len Int) lq_anf$36$$35$$35$7205759403792801655$35$$35$d25V) 0) (>= (apply$35$$35$0 (as len Int) lq_anf$36$$35$$35$7205759403792801655$35$$35$d25V) 0)))
(define-fun b$36$$35$$35$178 () Bool (and (= VV$35$$35$F$35$$35$11 lq_anf$36$$35$$35$7205759403792801658$35$$35$d25Y) (= (apply$35$$35$0 (as head Int) VV$35$$35$F$35$$35$11) lq_anf$36$$35$$35$7205759403792801650$35$$35$d25Q) (= (apply$35$$35$0 (as len Int) VV$35$$35$F$35$$35$11) (+ 1 (apply$35$$35$0 (as len Int) lq_anf$36$$35$$35$7205759403792801657$35$$35$d25X))) (= (apply$35$$35$0 (as tail Int) VV$35$$35$F$35$$35$11) lq_anf$36$$35$$35$7205759403792801657$35$$35$d25X) (>= (apply$35$$35$0 (as len Int) VV$35$$35$F$35$$35$11) 0)))
(define-fun b$36$$35$$35$115 () Bool (= lq_anf$36$$35$$35$7205759403792801627$35$$35$d25t lq_anf$36$$35$$35$7205759403792801626$35$$35$d25s))
(define-fun b$36$$35$$35$179 () Bool (and (= VV$35$$35$F$35$$35$24 lq_anf$36$$35$$35$7205759403792801646$35$$35$d25M) (= VV$35$$35$F$35$$35$24 lq_anf$36$$35$$35$7205759403792801645$35$$35$d25L)))
(define-fun b$36$$35$$35$148 () Bool (and (= (apply$35$$35$0 (as head Int) lq_anf$36$$35$$35$7205759403792801656$35$$35$d25W) lq_anf$36$$35$$35$7205759403792801654$35$$35$d25U) (= (apply$35$$35$0 (as len Int) lq_anf$36$$35$$35$7205759403792801656$35$$35$d25W) (+ 1 (apply$35$$35$0 (as len Int) lq_anf$36$$35$$35$7205759403792801655$35$$35$d25V))) (= (apply$35$$35$0 (as tail Int) lq_anf$36$$35$$35$7205759403792801656$35$$35$d25W) lq_anf$36$$35$$35$7205759403792801655$35$$35$d25V) (>= (apply$35$$35$0 (as len Int) lq_anf$36$$35$$35$7205759403792801656$35$$35$d25W) 0)))
(define-fun b$36$$35$$35$180 () Bool (and (= VV$35$$35$F$35$$35$25 lq_anf$36$$35$$35$7205759403792801646$35$$35$d25M) (= VV$35$$35$F$35$$35$25 lq_anf$36$$35$$35$7205759403792801645$35$$35$d25L)))
(define-fun b$36$$35$$35$181 () Bool (and (= VV$35$$35$F$35$$35$26 lq_anf$36$$35$$35$7205759403792801639$35$$35$d25F) (= VV$35$$35$F$35$$35$26 lq_anf$36$$35$$35$7205759403792801638$35$$35$d25E)))
(define-fun b$36$$35$$35$118 () Bool (= lq_anf$36$$35$$35$7205759403792801628$35$$35$d25u lit$36$$61$$61$$61$$32$Demo$32$1$58$$32$Pre$47$Post$32$Conditions$32$$61$$61$$61$))
(define-fun b$36$$35$$35$150 () Bool (and (= (apply$35$$35$0 (as head Int) lq_anf$36$$35$$35$7205759403792801657$35$$35$d25X) lq_anf$36$$35$$35$7205759403792801652$35$$35$d25S) (= (apply$35$$35$0 (as len Int) lq_anf$36$$35$$35$7205759403792801657$35$$35$d25X) (+ 1 (apply$35$$35$0 (as len Int) lq_anf$36$$35$$35$7205759403792801656$35$$35$d25W))) (= (apply$35$$35$0 (as tail Int) lq_anf$36$$35$$35$7205759403792801657$35$$35$d25X) lq_anf$36$$35$$35$7205759403792801656$35$$35$d25W) (>= (apply$35$$35$0 (as len Int) lq_anf$36$$35$$35$7205759403792801657$35$$35$d25X) 0)))
(define-fun b$36$$35$$35$182 () Bool (and (= VV$35$$35$F$35$$35$27 lq_anf$36$$35$$35$7205759403792801633$35$$35$d25z) (= VV$35$$35$F$35$$35$27 (- lq_anf$36$$35$$35$7205759403792801632$35$$35$d25y))))
(define-fun b$36$$35$$35$119 () Bool (and (= (apply$35$$35$18 (as len Int) lq_anf$36$$35$$35$7205759403792801629$35$$35$d25v) (strLen lq_anf$36$$35$$35$7205759403792801628$35$$35$d25u)) (>= (apply$35$$35$18 (as len Int) lq_anf$36$$35$$35$7205759403792801629$35$$35$d25v) 0) (= lq_anf$36$$35$$35$7205759403792801629$35$$35$d25v lq_anf$36$$35$$35$7205759403792801628$35$$35$d25u)))
(define-fun b$36$$35$$35$183 () Bool (= VV$35$$35$F$35$$35$28 (+ x$35$$35$a1gx lq_anf$36$$35$$35$7205759403792801627$35$$35$d25t)))
(define-fun b$36$$35$$35$152 () Bool (and (= (apply$35$$35$0 (as head Int) lq_anf$36$$35$$35$7205759403792801658$35$$35$d25Y) lq_anf$36$$35$$35$7205759403792801650$35$$35$d25Q) (= (apply$35$$35$0 (as len Int) lq_anf$36$$35$$35$7205759403792801658$35$$35$d25Y) (+ 1 (apply$35$$35$0 (as len Int) lq_anf$36$$35$$35$7205759403792801657$35$$35$d25X))) (= (apply$35$$35$0 (as tail Int) lq_anf$36$$35$$35$7205759403792801658$35$$35$d25Y) lq_anf$36$$35$$35$7205759403792801657$35$$35$d25X) (>= (apply$35$$35$0 (as len Int) lq_anf$36$$35$$35$7205759403792801658$35$$35$d25Y) 0)))
(define-fun b$36$$35$$35$184 () Bool (= VV$35$$35$F$35$$35$29 (Z3_OP_MUL x$35$$35$a1gA y$35$$35$a1gB)))
(define-fun b$36$$35$$35$89 () Bool GHC.Types.True)
(define-fun b$36$$35$$35$121 () Bool (= lq_anf$36$$35$$35$7205759403792801631$35$$35$d25x 10))
(define-fun b$36$$35$$35$185 () Bool (and (= VV$35$$35$F$35$$35$30 lq_anf$36$$35$$35$7205759403792801625$35$$35$d25r) (= VV$35$$35$F$35$$35$30 100.0)))
(define-fun b$36$$35$$35$122 () Bool (= lq_anf$36$$35$$35$7205759403792801632$35$$35$d25y lq_anf$36$$35$$35$7205759403792801631$35$$35$d25x))
(define-fun b$36$$35$$35$186 () Bool (and (= VV$35$$35$F$35$$35$31 y$35$$35$a1gz) (not (= VV$35$$35$F$35$$35$31 0))))
(define-fun b$36$$35$$35$123 () Bool (= lq_anf$36$$35$$35$7205759403792801633$35$$35$d25z (- lq_anf$36$$35$$35$7205759403792801632$35$$35$d25y)))
(define-fun b$36$$35$$35$124 () Bool (> lq_anf$36$$35$$35$7205759403792801634$35$$35$d25A 0))
(define-fun b$36$$35$$35$126 () Bool (= lq_anf$36$$35$$35$7205759403792801636$35$$35$d25C 10))
(define-fun b$36$$35$$35$127 () Bool (= lq_anf$36$$35$$35$7205759403792801637$35$$35$d25D lq_anf$36$$35$$35$7205759403792801636$35$$35$d25C))
(push 1)
(assert (and true b$36$$35$$35$98 b$36$$35$$35$100 b$36$$35$$35$74 b$36$$35$$35$89))
(push 1)
(assert (not (= 0 1)))
(check-sat)
; SMT Says: Sat
(pop 1)
(pop 1)
(push 1)
(push 1)
(assert (and true b$36$$35$$35$128 b$36$$35$$35$129 b$36$$35$$35$132 b$36$$35$$35$133 b$36$$35$$35$135 b$36$$35$$35$136 b$36$$35$$35$74 b$36$$35$$35$139 b$36$$35$$35$140 b$36$$35$$35$141 b$36$$35$$35$142 b$36$$35$$35$143 b$36$$35$$35$144 b$36$$35$$35$146 b$36$$35$$35$178 b$36$$35$$35$148 b$36$$35$$35$118 b$36$$35$$35$150 b$36$$35$$35$119 b$36$$35$$35$152 b$36$$35$$35$89 b$36$$35$$35$121 b$36$$35$$35$122 b$36$$35$$35$123 b$36$$35$$35$124 b$36$$35$$35$126 b$36$$35$$35$127))
(push 1)
(assert (not (= (apply$35$$35$0 (as len Int) VV$35$$35$F$35$$35$11) 10)))
(check-sat)
; SMT Says: Sat
(pop 1)
(pop 1)
(push 1)
(assert (and true b$36$$35$$35$128 b$36$$35$$35$129 b$36$$35$$35$132 b$36$$35$$35$133 b$36$$35$$35$135 b$36$$35$$35$136 b$36$$35$$35$74 b$36$$35$$35$179 b$36$$35$$35$118 b$36$$35$$35$119 b$36$$35$$35$89 b$36$$35$$35$121 b$36$$35$$35$122 b$36$$35$$35$123 b$36$$35$$35$124 b$36$$35$$35$126 b$36$$35$$35$127))
(push 1)
(assert (not (<= 0 VV$35$$35$F$35$$35$24)))
(check-sat)
; SMT Says: Unsat
(pop 1)
(pop 1)
(push 1)
(assert (and true b$36$$35$$35$128 b$36$$35$$35$129 b$36$$35$$35$132 b$36$$35$$35$133 b$36$$35$$35$135 b$36$$35$$35$136 b$36$$35$$35$74 b$36$$35$$35$180 b$36$$35$$35$118 b$36$$35$$35$119 b$36$$35$$35$89 b$36$$35$$35$121 b$36$$35$$35$122 b$36$$35$$35$123 b$36$$35$$35$124 b$36$$35$$35$126 b$36$$35$$35$127))
(push 1)
(assert (not (<= VV$35$$35$F$35$$35$25 100)))
(check-sat)
; SMT Says: Unsat
(pop 1)
(pop 1)
(push 1)
(assert (and true b$36$$35$$35$128 b$36$$35$$35$129 b$36$$35$$35$74 b$36$$35$$35$181 b$36$$35$$35$118 b$36$$35$$35$119 b$36$$35$$35$89 b$36$$35$$35$121 b$36$$35$$35$122 b$36$$35$$35$123 b$36$$35$$35$124 b$36$$35$$35$126 b$36$$35$$35$127))
(push 1)
(assert (not (not (= VV$35$$35$F$35$$35$26 0))))
(check-sat)
; SMT Says: Unsat
(pop 1)
(pop 1)
(push 1)
(assert (and true b$36$$35$$35$74 b$36$$35$$35$118 b$36$$35$$35$182 b$36$$35$$35$119 b$36$$35$$35$89 b$36$$35$$35$121 b$36$$35$$35$122 b$36$$35$$35$123))
(push 1)
(assert (not (>= VV$35$$35$F$35$$35$27 0)))
(check-sat)
; SMT Says: Sat
(pop 1)
(pop 1)
(push 1)
(assert (and true b$36$$35$$35$74 b$36$$35$$35$113 b$36$$35$$35$114 b$36$$35$$35$115 b$36$$35$$35$183 b$36$$35$$35$89))
(push 1)
(assert (not (> VV$35$$35$F$35$$35$28 0)))
(check-sat)
; SMT Says: Unsat
(pop 1)
(pop 1)
(push 1)
(assert (and true b$36$$35$$35$74 b$36$$35$$35$110 b$36$$35$$35$111 b$36$$35$$35$184 b$36$$35$$35$89))
(push 1)
(assert (not (> VV$35$$35$F$35$$35$29 0)))
(check-sat)
; SMT Says: Unsat
(pop 1)
(pop 1)
(push 1)
(assert (and true b$36$$35$$35$74 b$36$$35$$35$106 b$36$$35$$35$107 b$36$$35$$35$108 b$36$$35$$35$89 b$36$$35$$35$185))
(push 1)
(assert (not (not (= VV$35$$35$F$35$$35$30 0))))
(check-sat)
; SMT Says: Unsat
(pop 1)
(pop 1)
(push 1)
(assert (and true b$36$$35$$35$104 b$36$$35$$35$74 b$36$$35$$35$89 b$36$$35$$35$186))
(push 1)
(assert (not (not (= VV$35$$35$F$35$$35$31 0))))
(check-sat)
; SMT Says: Unsat
(pop 1)
(pop 1)
(pop 1)
(pop 1)
